projected/problems_b25_r0_d7_m100_s666/_DIMACS/b25_d7_r0_s666_065.cnf
p cnf 270 483 25
c p show 1 2 3 4 5 6 7 8 9 10 11 12 13 14 15 16 17 18 19 20 21 22 23 24 25
-26 17 21 0
-27 20 0
-27 -9 0
-28 9 0
-28 -20 0
-29 28 27 0
-30 29 0
-30 26 0
-31 12 7 0
-32 22 0
-32 1 0
-33 32 0
-33 31 0
-34 33 0
-34 30 0
-35 9 6 0
-36 19 0
-36 -5 0
-37 36 35 0
-38 -10 0
-38 -8 0
-39 4 10 0
-40 39 0
-40 38 0
-41 40 37 0
-42 41 0
-42 34 0
-43 -1 0
-43 3 0
-44 -9 0
-44 -21 0
-45 44 43 0
-46 3 1 0
-47 -9 0
-47 17 0
-48 47 0
-48 46 0
-49 48 45 0
-50 -7 -19 0
-51 19 7 0
-52 51 0
-52 50 0
-53 -7 -24 0
-54 53 0
-54 52 0
-55 18 0
-55 25 0
-56 8 11 0
-57 56 55 0
-58 57 54 0
-59 58 0
-59 49 0
-60 59 42 0
-61 -18 0
-61 8 0
-62 1 0
-62 -19 0
-63 62 61 0
-64 15 25 0
-65 -24 0
-65 -22 0
-66 65 64 0
-67 66 63 0
-68 17 6 0
-69 -6 -17 0
-70 69 0
-70 68 0
-71 22 8 0
-72 71 0
-72 70 0
-73 25 0
-73 -10 0
-74 11 3 0
-75 74 73 0
-76 -11 0
-76 -3 0
-77 -25 10 0
-78 77 76 0
-79 78 0
-79 75 0
-80 79 0
-80 72 0
-81 80 67 0
-82 -9 0
-82 -5 0
-83 -24 0
-83 -2 0
-84 83 0
-84 82 0
-85 -10 -20 0
-86 16 9 0
-87 86 0
-87 85 0
-88 87 84 0
-89 4 0
-89 3 0
-90 3 12 0
-91 90 0
-91 89 0
-92 -25 0
-92 18 0
-93 -18 0
-93 25 0
-94 93 92 0
-95 23 19 0
-96 95 94 0
-97 -23 0
-97 -19 0
-98 25 -18 0
-99 18 -25 0
-100 99 0
-100 98 0
-101 100 97 0
-102 101 0
-102 96 0
-103 102 0
-103 91 0
-104 103 88 0
-105 -4 -3 0
-106 -3 0
-106 -12 0
-107 106 105 0
-108 97 0
-108 100 0
-109 94 0
-109 95 0
-110 109 108 0
-111 110 107 0
-112 9 5 0
-113 24 2 0
-114 113 112 0
-115 10 0
-115 20 0
-116 -16 0
-116 -9 0
-117 116 115 0
-118 117 0
-118 114 0
-119 118 111 0
-120 119 0
-120 104 0
-121 120 0
-121 81 0
-122 121 60 0
-123 -6 -25 0
-124 20 -5 0
-125 124 123 0
-126 -15 17 0
-127 10 0
-127 -8 0
-128 127 126 0
-129 128 0
-129 125 0
-130 9 -21 0
-131 2 0
-131 -6 0
-132 131 0
-132 130 0
-133 -14 7 0
-134 -24 6 0
-135 134 133 0
-136 135 132 0
-137 136 0
-137 129 0
-138 14 0
-138 -21 0
-139 -9 0
-139 4 0
-140 139 138 0
-141 -25 23 0
-142 -8 -14 0
-143 142 0
-143 141 0
-144 143 0
-144 140 0
-145 14 18 0
-146 -6 0
-146 17 0
-147 146 0
-147 145 0
-148 17 -12 0
-149 -2 8 0
-150 149 0
-150 148 0
-151 150 147 0
-152 151 144 0
-153 -14 0
-153 -18 0
-154 6 -17 0
-155 154 153 0
-156 -17 0
-156 12 0
-157 2 0
-157 -8 0
-158 157 156 0
-159 158 0
-159 155 0
-160 -14 21 0
-161 9 -4 0
-162 161 0
-162 160 0
-163 25 0
-163 -23 0
-164 8 0
-164 14 0
-165 164 163 0
-166 165 162 0
-167 166 159 0
-168 167 0
-168 152 0
-169 168 137 0
-170 13 0
-170 3 0
-171 -24 0
-171 -23 0
-172 171 170 0
-173 -23 0
-173 19 0
-174 18 -8 0
-175 8 -18 0
-176 175 0
-176 174 0
-177 176 0
-177 173 0
-178 177 172 0
-179 19 0
-179 -21 0
-180 21 0
-180 -19 0
-181 180 179 0
-182 -25 20 0
-183 182 181 0
-184 6 0
-185 -6 0
-186 185 184 0
-187 4 0
-188 187 0
-188 186 0
-189 188 183 0
-190 189 0
-190 178 0
-191 -19 21 0
-192 -21 19 0
-193 192 0
-193 191 0
-194 25 0
-194 -20 0
-195 194 0
-195 193 0
-196 -6 0
-197 6 0
-198 197 0
-198 196 0
-199 -4 0
-200 199 198 0
-201 200 0
-201 195 0
-202 -13 -3 0
-203 24 23 0
-204 203 0
-204 202 0
-205 23 -19 0
-206 -8 0
-206 18 0
-207 206 61 0
-208 207 205 0
-209 208 0
-209 204 0
-210 209 0
-210 201 0
-211 210 190 0
-212 9 15 0
-213 139 0
-213 212 0
-214 -14 0
-214 25 0
-215 14 -13 0
-216 215 214 0
-217 -14 0
-217 13 0
-218 14 -25 0
-219 218 217 0
-220 219 0
-220 216 0
-221 220 213 0
-222 21 -24 0
-223 -21 0
-223 12 0
-224 223 0
-224 222 0
-225 16 0
-225 -7 0
-226 12 0
-226 -7 0
-227 226 0
-227 225 0
-228 227 0
-228 224 0
-229 228 0
-229 221 0
-230 229 0
-230 211 0
-231 230 0
-231 169 0
-232 201 209 0
-233 178 189 0
-234 233 0
-234 232 0
-235 -9 0
-235 -15 0
-236 161 235 0
-237 217 0
-237 218 0
-238 214 0
-238 215 0
-239 238 237 0
-240 239 0
-240 236 0
-241 -21 0
-241 24 0
-242 21 -12 0
-243 242 241 0
-244 -16 7 0
-245 -12 7 0
-246 245 244 0
-247 246 243 0
-248 247 240 0
-249 248 234 0
-250 6 0
-250 25 0
-251 -20 0
-251 5 0
-252 251 0
-252 250 0
-253 15 0
-253 -17 0
-254 -10 8 0
-255 254 0
-255 253 0
-256 255 252 0
-257 -9 0
-257 21 0
-258 -2 6 0
-259 258 257 0
-260 14 0
-260 -7 0
-261 24 0
-261 -6 0
-262 261 0
-262 260 0
-263 262 0
-263 259 0
-264 263 256 0
-265 159 0
-265 166 0
-266 144 0
-266 151 0
-267 266 265 0
-268 267 0
-268 264 0
-269 268 0
-269 249 0
-270 269 231 0
270 0
122 0
-74 -76 0
-76 -74 0
-77 -73 0
-73 -77 0
-105 -89 0
-89 -105 0
-106 -90 0
-90 -106 0
-91 -107 0
-107 -91 0
-95 -97 0
-97 -95 0
-100 -94 0
-94 -100 0
-102 -110 0
-110 -102 0
-111 -103 0
-82 -112 0
-83 -113 0
-84 -114 0
-114 -84 0
-115 -85 0
-85 -115 0
-116 -86 0
-86 -116 0
-87 -117 0
-117 -87 0
-118 -88 0
-88 -118 0
-193 -181 0
-181 -193 0
-182 -194 0
-183 -195 0
-195 -183 0
-198 -186 0
-186 -198 0
-199 -187 0
-187 -199 0
-188 -200 0
-200 -188 0
-201 -189 0
-189 -201 0
-170 -202 0
-203 -171 0
-171 -203 0
-172 -204 0
-173 -205 0
-176 -207 0
-177 -208 0
-178 -209 0
-209 -178 0
-234 -211 0
-235 -212 0
-212 -235 0
-161 -139 0
-139 -161 0
-213 -236 0
-215 -217 0
-217 -215 0
-214 -218 0
-220 -239 0
-221 -240 0
-240 -221 0
-241 -222 0
-242 -223 0
-243 -224 0
-244 -225 0
-245 -226 0
-246 -227 0
-247 -228 0
-248 -229 0
-249 -230 0
-230 -249 0
-250 -123 0
-123 -250 0
-124 -251 0
-125 -252 0
-253 -126 0
-126 -253 0
-254 -127 0
-127 -254 0
-128 -255 0
-129 -256 0
-256 -129 0
-130 -257 0
-131 -258 0
-132 -259 0
-260 -133 0
-133 -260 0
-134 -261 0
-135 -262 0
-136 -263 0
-263 -136 0
-264 -137 0
-153 -145 0
-154 -146 0
-155 -147 0
-147 -155 0
-148 -156 0
-156 -148 0
-149 -157 0
-157 -149 0
-158 -150 0
-150 -158 0
-151 -159 0
-159 -151 0
-138 -160 0
-160 -138 0
-162 -140 0
-140 -162 0
-163 -141 0
-141 -163 0
-142 -164 0
-143 -165 0
-144 -166 0
-168 -267 0
-267 -168 0
-268 -169 0
