projected/problems_b25_r0_d7_m100_s666/b25_d7_r0_s666_065.smt2
(set-logic QF_UF)
(declare-fun A0 () Bool)
(declare-fun A1 () Bool)
(declare-fun A2 () Bool)
(declare-fun A3 () Bool)
(declare-fun A4 () Bool)
(declare-fun A5 () Bool)
(declare-fun A6 () Bool)
(declare-fun A7 () Bool)
(declare-fun A8 () Bool)
(declare-fun A9 () Bool)
(declare-fun A10 () Bool)
(declare-fun A11 () Bool)
(declare-fun A12 () Bool)
(declare-fun A13 () Bool)
(declare-fun A14 () Bool)
(declare-fun A15 () Bool)
(declare-fun A16 () Bool)
(declare-fun A17 () Bool)
(declare-fun A18 () Bool)
(declare-fun A19 () Bool)
(declare-fun A20 () Bool)
(declare-fun A21 () Bool)
(declare-fun A22 () Bool)
(declare-fun A23 () Bool)
(declare-fun A24 () Bool)
(assert (let ((.def_0 (not A20))) (let ((.def_1 (not A16))) (let ((.def_2 (and .def_1 .def_0))) (let ((.def_3 (not .def_2))) (let ((.def_4 (= A8 A19))) (let ((.def_5 (not .def_4))) (let ((.def_6 (and .def_5 .def_3))) (let ((.def_7 (not .def_6))) (let ((.def_8 (not A6))) (let ((.def_9 (not A11))) (let ((.def_10 (and .def_9 .def_8))) (let ((.def_11 (not .def_10))) (let ((.def_12 (not A0))) (let ((.def_13 (not A21))) (let ((.def_14 (or .def_13 .def_12))) (let ((.def_15 (not .def_14))) (let ((.def_16 (and .def_15 .def_11))) (let ((.def_17 (not .def_16))) (let ((.def_18 (or .def_17 .def_7))) (let ((.def_19 (not A5))) (let ((.def_20 (not A8))) (let ((.def_21 (and .def_20 .def_19))) (let ((.def_22 (not A4))) (let ((.def_23 (and A18 .def_22))) (let ((.def_24 (not .def_23))) (let ((.def_25 (and .def_24 .def_21))) (let ((.def_26 (or A9 A7))) (let ((.def_27 (not .def_26))) (let ((.def_28 (not A9))) (let ((.def_29 (not A3))) (let ((.def_30 (and .def_29 .def_28))) (let ((.def_31 (not .def_30))) (let ((.def_32 (and .def_31 .def_27))) (let ((.def_33 (not .def_32))) (let ((.def_34 (and .def_33 .def_25))) (let ((.def_35 (or .def_34 .def_18))) (let ((.def_36 (not .def_35))) (let ((.def_37 (not A2))) (let ((.def_38 (or A0 .def_37))) (let ((.def_39 (and .def_20 .def_0))) (let ((.def_40 (not .def_39))) (let ((.def_41 (and .def_40 .def_38))) (let ((.def_42 (not .def_41))) (let ((.def_43 (and .def_37 .def_12))) (let ((.def_44 (and .def_20 A16))) (let ((.def_45 (not .def_44))) (let ((.def_46 (or .def_45 .def_43))) (let ((.def_47 (not .def_46))) (let ((.def_48 (or .def_47 .def_42))) (let ((.def_49 (not .def_48))) (let ((.def_50 (not A18))) (let ((.def_51 (= .def_50 A6))) (let ((.def_52 (not .def_51))) (let ((.def_53 (and A6 A23))) (let ((.def_54 (or .def_53 .def_52))) (let ((.def_55 (not .def_54))) (let ((.def_56 (and A17 A24))) (let ((.def_57 (not A10))) (let ((.def_58 (not A7))) (let ((.def_59 (and .def_58 .def_57))) (let ((.def_60 (not .def_59))) (let ((.def_61 (or .def_60 .def_56))) (let ((.def_62 (or .def_61 .def_55))) (let ((.def_63 (not .def_62))) (let ((.def_64 (or .def_63 .def_49))) (let ((.def_65 (not .def_64))) (let ((.def_66 (or .def_65 .def_36))) (let ((.def_67 (not A17))) (let ((.def_68 (and .def_67 A7))) (let ((.def_69 (or .def_12 A18))) (let ((.def_70 (not .def_69))) (let ((.def_71 (or .def_70 .def_68))) (let ((.def_72 (not A24))) (let ((.def_73 (not A14))) (let ((.def_74 (and .def_73 .def_72))) (let ((.def_75 (not .def_74))) (let ((.def_76 (or A23 A21))) (let ((.def_77 (not .def_76))) (let ((.def_78 (or .def_77 .def_75))) (let ((.def_79 (or .def_78 .def_71))) (let ((.def_80 (not .def_79))) (let ((.def_81 (= A5 .def_1))) (let ((.def_82 (and .def_13 .def_58))) (let ((.def_83 (not .def_82))) (let ((.def_84 (and .def_83 .def_81))) (let ((.def_85 (not .def_84))) (let ((.def_86 (or A10 A2))) (let ((.def_87 (not .def_86))) (let ((.def_88 (or .def_72 A9))) (let ((.def_89 (not .def_88))) (let ((.def_90 (= .def_89 .def_87))) (let ((.def_91 (not .def_90))) (let ((.def_92 (or .def_91 .def_85))) (let ((.def_93 (and .def_92 .def_80))) (let ((.def_94 (or .def_29 .def_37))) (let ((.def_95 (not .def_94))) (let ((.def_96 (and .def_37 .def_9))) (let ((.def_97 (not .def_96))) (let ((.def_98 (and .def_97 .def_95))) (let ((.def_99 (not .def_98))) (let ((.def_100 (or A22 A18))) (let ((.def_101 (not .def_100))) (let ((.def_102 (= .def_67 .def_72))) (let ((.def_103 (not .def_102))) (let ((.def_104 (= .def_103 .def_101))) (let ((.def_105 (not .def_104))) (let ((.def_106 (or .def_105 .def_99))) (let ((.def_107 (and .def_20 .def_22))) (let ((.def_108 (not A1))) (let ((.def_109 (not A23))) (let ((.def_110 (and .def_109 .def_108))) (let ((.def_111 (and .def_110 .def_107))) (let ((.def_112 (not .def_111))) (let ((.def_113 (and A9 A19))) (let ((.def_114 (not .def_113))) (let ((.def_115 (not A15))) (let ((.def_116 (and .def_115 .def_20))) (let ((.def_117 (not .def_116))) (let ((.def_118 (and .def_117 .def_114))) (let ((.def_119 (not .def_118))) (let ((.def_120 (and .def_119 .def_112))) (let ((.def_121 (not .def_120))) (let ((.def_122 (= .def_121 .def_106))) (let ((.def_123 (not .def_122))) (let ((.def_124 (or .def_123 .def_93))) (let ((.def_125 (not .def_124))) (let ((.def_126 (or .def_125 .def_66))) (let ((.def_127 (not .def_126))) (let ((.def_128 (= A20 A18))) (let ((.def_129 (not .def_128))) (let ((.def_130 (or .def_72 A19))) (let ((.def_131 (or .def_130 .def_129))) (let ((.def_132 (not .def_131))) (let ((.def_133 (= .def_19 A5))) (let ((.def_134 (not .def_133))) (let ((.def_135 (or .def_29 .def_29))) (let ((.def_136 (not .def_135))) (let ((.def_137 (and .def_136 .def_134))) (let ((.def_138 (not .def_137))) (let ((.def_139 (and .def_138 .def_132))) (let ((.def_140 (not .def_139))) (let ((.def_141 (and A12 A2))) (let ((.def_142 (or A23 A22))) (let ((.def_143 (not .def_142))) (let ((.def_144 (or .def_143 .def_141))) (let ((.def_145 (not A22))) (let ((.def_146 (and .def_145 A18))) (let ((.def_147 (= .def_58 .def_67))) (let ((.def_148 (and .def_147 .def_146))) (let ((.def_149 (or .def_148 .def_144))) (let ((.def_150 (not .def_149))) (let ((.def_151 (= .def_150 .def_140))) (let ((.def_152 (and .def_20 .def_73))) (let ((.def_153 (not .def_152))) (let ((.def_154 (or A8 .def_29))) (let ((.def_155 (not .def_154))) (let ((.def_156 (and .def_155 .def_153))) (let ((.def_157 (not A12))) (let ((.def_158 (or A13 .def_157))) (let ((.def_159 (not .def_158))) (let ((.def_160 (not A13))) (let ((.def_161 (and .def_160 A24))) (let ((.def_162 (= .def_161 .def_159))) (let ((.def_163 (or .def_162 .def_156))) (let ((.def_164 (not .def_163))) (let ((.def_165 (and .def_0 A23))) (let ((.def_166 (or A20 .def_9))) (let ((.def_167 (or .def_166 .def_165))) (let ((.def_168 (or .def_115 A6))) (let ((.def_169 (or .def_9 A6))) (let ((.def_170 (or .def_169 .def_168))) (let ((.def_171 (or .def_170 .def_167))) (let ((.def_172 (or .def_171 .def_164))) (let ((.def_173 (or .def_172 .def_151))) (let ((.def_174 (not .def_173))) (let ((.def_175 (and A5 A24))) (let ((.def_176 (not .def_175))) (let ((.def_177 (or A19 .def_22))) (let ((.def_178 (or .def_177 .def_176))) (let ((.def_179 (and A14 .def_1))) (let ((.def_180 (not .def_179))) (let ((.def_181 (or .def_28 A7))) (let ((.def_182 (not .def_181))) (let ((.def_183 (or .def_182 .def_180))) (let ((.def_184 (and .def_183 .def_178))) (let ((.def_185 (not .def_184))) (let ((.def_186 (or A8 .def_0))) (let ((.def_187 (and A1 .def_19))) (let ((.def_188 (and .def_187 .def_186))) (let ((.def_189 (and A13 .def_8))) (let ((.def_190 (not .def_189))) (let ((.def_191 (or .def_109 A5))) (let ((.def_192 (or .def_191 .def_190))) (let ((.def_193 (or .def_192 .def_188))) (let ((.def_194 (not .def_193))) (let ((.def_195 (or .def_194 .def_185))) (let ((.def_196 (and .def_160 .def_67))) (let ((.def_197 (or A5 .def_1))) (let ((.def_198 (or .def_197 .def_196))) (let ((.def_199 (not .def_198))) (let ((.def_200 (or A16 .def_9))) (let ((.def_201 (not .def_200))) (let ((.def_202 (or .def_108 A7))) (let ((.def_203 (not .def_202))) (let ((.def_204 (or .def_203 .def_201))) (let ((.def_205 (not .def_204))) (let ((.def_206 (or .def_205 .def_199))) (let ((.def_207 (not .def_206))) (let ((.def_208 (and A13 .def_0))) (let ((.def_209 (not .def_208))) (let ((.def_210 (and .def_154 .def_209))) (let ((.def_211 (not .def_210))) (let ((.def_212 (and A24 .def_145))) (let ((.def_213 (not .def_212))) (let ((.def_214 (or .def_58 .def_160))) (let ((.def_215 (and .def_214 .def_213))) (let ((.def_216 (and .def_215 .def_211))) (let ((.def_217 (= .def_216 .def_207))) (let ((.def_218 (not .def_217))) (let ((.def_219 (and .def_218 .def_195))) (let ((.def_220 (= .def_219 .def_174))) (let ((.def_221 (or .def_220 .def_127))) (let ((.def_222 (not .def_221))) .def_222))))))))))))))))))))))))))))))))))))))))))))))))))))))))))))))))))))))))))))))))))))))))))))))))))))))))))))))))))))))))))))))))))))))))))))))))))))))))))))))))))))))))))))))))))))))))))))))))))))))))))))))))))))))))))))))))
(check-sat)
